# Solution for model count
# Objective value = 4
z#1 0
z#2 0
z#3 0
z#4 1
z#5 0
z#6 1
z#7 0
z#8 1
z#9 0
z#10 0
z#11 1
z#12 0
z#13 0
z#14 0
z#15 0
z#16 0
z#17 0
z#18 0
z#19 0
z#20 0
z#21 0
z#22 0
z#23 0
z#24 0
x#24 0
x#23 0
x#22 0
x#21 0
x#20 0
x#19 0
x#18 0
x#17 0
x#16 0
x#15 0
x#14 0
x#13 0
x#12 0
x#11 208
x#10 0
x#9 0
x#8 1097
x#7 0
x#6 566
x#5 0
x#4 8129
x#3 0
x#2 0
x#1 0
